NAME: random-16-28311
TYPE: TSP
COMMENT: size=16 seed=28311
DIMENSION: 34
EDGE_WEIGHT_TYPE: EUC_2D
NODE_COORD_SECTION
+0 977 658
-0 977 658
+1 529 486
-1 27 365
+2 596 585
-2 361 180
+3 337 296
-3 46 21
+4 697 320
-4 702 208
+5 340 938
-5 421 200
+6 275 864
-6 648 547
+7 57 588
-7 683 920
+8 22 116
-8 77 939
+9 699 481
-9 190 410
+10 266 40
-10 250 280
+11 920 816
-11 254 539
+12 494 342
-12 411 908
+13 231 630
-13 111 79
+14 433 745
-14 50 875
+15 225 25
-15 187 760
+16 107 635
-16 349 392
PRECEDENCE_SECTION
+0 -0
+1 -1
+2 -2
+3 -3
+4 -4
+5 -5
+6 -6
+7 -7
+8 -8
+9 -9
+10 -10
+11 -11
+12 -12
+13 -13
+14 -14
+15 -15
+16 -16
EOF
